words_train/words_22_SAT.qaiger
aag 94 16 0 1 78
32
16
8
22
20
12
26
30
6
4
18
10
28
2
14
24
189
34 21 19
36 34 23
38 36 25
40 38 27
42 40 29
44 41 28
46 45 43
48 46 12
50 39 26
52 51 41
54 52 10
56 37 24
58 57 39
60 58 8
62 35 22
64 63 37
66 64 6
68 65 7
70 69 67
72 20 18
74 73 35
76 75 5
78 74 4
80 18 2
82 81 79
84 83 77
86 84 70
88 87 67
90 59 9
92 91 61
94 92 89
96 95 61
98 53 11
100 99 55
102 100 97
104 103 55
106 47 13
108 107 49
110 108 105
112 111 49
114 42 31
116 43 30
118 117 115
120 118 14
122 119 15
124 123 121
126 124 113
128 125 112
130 129 127
132 19 3
134 82 77
136 134 133
138 101 96
140 139 103
142 93 88
144 143 95
146 145 141
148 146 137
150 148 131
152 85 71
154 153 87
156 109 104
158 157 111
160 159 155
162 160 150
164 127 121
166 33 17
168 32 16
170 169 167
172 171 114
174 170 115
176 175 173
178 176 165
180 177 164
182 181 179
184 183 162
186 182 163
188 187 185
i0 1 x[7]
i1 2 y[7]
i2 2 y[3]
i3 1 x[2]
i4 1 x[1]
i5 2 y[5]
i6 1 x[4]
i7 1 x[6]
i8 2 y[2]
i9 2 y[1]
i10 1 x[0]
i11 2 y[4]
i12 1 x[5]
i13 2 y[0]
i14 2 y[6]
i15 1 x[3]
o0 bv[0]
c
simplified
  >
    add
      add
        1
        1
      1
    subtract
      2 y
      1 x
