words_train/words_22_SAT.qaiger.qdimacs
p cnf 94 235
a 9 10 11 12 13 14 15 16 0
e 1 2 3 4 5 6 7 8 17 18 19 20 21 22 23 24 25 26 27 28 29 30 31 32 33 34 35 36 37 38 39 40 41 42 43 44 45 46 47 48 49 50 51 52 53 54 55 56 57 58 59 60 61 62 63 64 65 66 67 68 69 70 71 72 73 74 75 76 77 78 79 80 81 82 83 84 85 86 87 88 89 90 91 92 93 94 0
10 9 17 0
-10 -17 0
-9 -17 0
-17 11 18 0
17 -18 0
-11 -18 0
-18 12 19 0
18 -19 0
-12 -19 0
-19 13 20 0
19 -20 0
-13 -20 0
-20 14 21 0
20 -21 0
-14 -21 0
20 -14 22 0
-20 -22 0
14 -22 0
22 21 23 0
-22 -23 0
-21 -23 0
-23 -6 24 0
23 -24 0
6 -24 0
19 -13 25 0
-19 -25 0
13 -25 0
25 20 26 0
-25 -26 0
-20 -26 0
-26 -5 27 0
26 -27 0
5 -27 0
18 -12 28 0
-18 -28 0
12 -28 0
28 19 29 0
-28 -29 0
-19 -29 0
-29 -4 30 0
29 -30 0
4 -30 0
17 -11 31 0
-17 -31 0
11 -31 0
31 18 32 0
-31 -32 0
-18 -32 0
-32 -3 33 0
32 -33 0
3 -33 0
32 3 34 0
-32 -34 0
-3 -34 0
34 33 35 0
-34 -35 0
-33 -35 0
-10 -9 36 0
10 -36 0
9 -36 0
36 17 37 0
-36 -37 0
-17 -37 0
37 2 38 0
-37 -38 0
-2 -38 0
-37 -2 39 0
37 -39 0
2 -39 0
-9 -1 40 0
9 -40 0
1 -40 0
40 39 41 0
-40 -41 0
-39 -41 0
41 38 42 0
-41 -42 0
-38 -42 0
-42 -35 43 0
42 -43 0
35 -43 0
43 33 44 0
-43 -44 0
-33 -44 0
29 4 45 0
-29 -45 0
-4 -45 0
45 30 46 0
-45 -46 0
-30 -46 0
-46 44 47 0
46 -47 0
-44 -47 0
47 30 48 0
-47 -48 0
-30 -48 0
26 5 49 0
-26 -49 0
-5 -49 0
49 27 50 0
-49 -50 0
-27 -50 0
-50 48 51 0
50 -51 0
-48 -51 0
51 27 52 0
-51 -52 0
-27 -52 0
23 6 53 0
-23 -53 0
-6 -53 0
53 24 54 0
-53 -54 0
-24 -54 0
-54 52 55 0
54 -55 0
-52 -55 0
55 24 56 0
-55 -56 0
-24 -56 0
-21 15 57 0
21 -57 0
-15 -57 0
21 -15 58 0
-21 -58 0
15 -58 0
58 57 59 0
-58 -59 0
-57 -59 0
-59 -7 60 0
59 -60 0
7 -60 0
59 7 61 0
-59 -61 0
-7 -61 0
61 60 62 0
-61 -62 0
-60 -62 0
-62 56 63 0
62 -63 0
-56 -63 0
62 -56 64 0
-62 -64 0
56 -64 0
64 63 65 0
-64 -65 0
-63 -65 0
9 1 66 0
-9 -66 0
-1 -66 0
-41 38 67 0
41 -67 0
-38 -67 0
-67 66 68 0
67 -68 0
-66 -68 0
50 -48 69 0
-50 -69 0
48 -69 0
69 51 70 0
-69 -70 0
-51 -70 0
46 -44 71 0
-46 -71 0
44 -71 0
71 47 72 0
-71 -72 0
-47 -72 0
72 70 73 0
-72 -73 0
-70 -73 0
-73 68 74 0
73 -74 0
-68 -74 0
-74 65 75 0
74 -75 0
-65 -75 0
42 35 76 0
-42 -76 0
-35 -76 0
76 43 77 0
-76 -77 0
-43 -77 0
54 -52 78 0
-54 -78 0
52 -78 0
78 55 79 0
-78 -79 0
-55 -79 0
79 77 80 0
-79 -80 0
-77 -80 0
-80 -75 81 0
80 -81 0
75 -81 0
63 60 82 0
-63 -82 0
-60 -82 0
16 8 83 0
-16 -83 0
-8 -83 0
-16 -8 84 0
16 -84 0
8 -84 0
84 83 85 0
-84 -85 0
-83 -85 0
85 -57 86 0
-85 -86 0
57 -86 0
-85 57 87 0
85 -87 0
-57 -87 0
87 86 88 0
-87 -88 0
-86 -88 0
-88 82 89 0
88 -89 0
-82 -89 0
88 -82 90 0
-88 -90 0
82 -90 0
90 89 91 0
-90 -91 0
-89 -91 0
91 -81 92 0
-91 -92 0
81 -92 0
-91 81 93 0
91 -93 0
-81 -93 0
93 92 94 0
-93 -94 0
-92 -94 0
-94 0
